networks/zoo_32_126/standard/zoo_32_126.sol
<?xml version = "1.0" encoding="UTF-8" standalone="yes"?>
<CPLEXSolution version="1.2">
 <header
   problemName="networks/zoo_32_126/zoo_32_126.lp"
   solutionName="incumbent"
   solutionIndex="-1"
   objectiveValue="16"
   solutionTypeValue="3"
   solutionTypeString="primal"
   solutionStatusValue="101"
   solutionStatusString="integer optimal solution"
   solutionMethodString="mip"
   primalFeasible="1"
   dualFeasible="1"
   MIPNodes="738"
   MIPIterations="12382"
   writeLevel="3"/>
 <quality
   epInt="1.0000000000000001e-05"
   epRHS="9.9999999999999995e-07"
   maxIntInfeas="0"
   maxPrimalInfeas="0"
   maxX="4"
   maxSlack="10"/>
 <variables>
  <variable name="Y(5,15)" index="134" value="1"/>
  <variable name="Y(7,4)" index="183" value="1"/>
  <variable name="Y(18,13)" index="522" value="1"/>
  <variable name="Y(29,14)" index="853" value="1"/>
  <variable name="Y(31,2)" index="901" value="1"/>
  <variable name="Y(43,6)" index="1265" value="1"/>
  <variable name="Y(49,12)" index="1451" value="1"/>
  <variable name="Y(56,9)" index="1658" value="1"/>
  <variable name="Y(61,3)" index="1802" value="1"/>
  <variable name="Y(73,7)" index="2166" value="1"/>
  <variable name="Y(74,8)" index="2197" value="1"/>
  <variable name="Y(93,6)" index="2765" value="1"/>
  <variable name="Y(100,1)" index="2970" value="1"/>
  <variable name="Y(104,5)" index="3094" value="1"/>
  <variable name="Y(110,11)" index="3280" value="1"/>
  <variable name="Y(123,10)" index="3669" value="1"/>
  <variable name="X(1,15,5)" index="3784" value="1"/>
  <variable name="X(1,18,100)" index="4005" value="1"/>
  <variable name="X(2,14,7)" index="4038" value="1"/>
  <variable name="X(2,19,31)" index="4188" value="1"/>
  <variable name="X(3,14,18)" index="4301" value="1"/>
  <variable name="X(3,20,61)" index="4470" value="1"/>
  <variable name="X(4,15,29)" index="4564" value="1"/>
  <variable name="X(4,21,7)" index="4668" value="1"/>
  <variable name="X(5,10,31)" index="4818" value="1"/>
  <variable name="X(5,22,104)" index="5017" value="1"/>
  <variable name="X(6,10,43)" index="5082" value="1"/>
  <variable name="X(6,23,93)" index="5258" value="1"/>
  <variable name="X(7,12,49)" index="5340" value="1"/>
  <variable name="X(7,24,73)" index="5490" value="1"/>
  <variable name="X(8,14,56)" index="5599" value="1"/>
  <variable name="X(8,25,74)" index="5743" value="1"/>
  <variable name="X(9,14,61)" index="5856" value="1"/>
  <variable name="X(9,26,56)" index="5977" value="1"/>
  <variable name="X(10,5,104)" index="6151" value="1"/>
  <variable name="X(10,6,93)" index="6266" value="1"/>
  <variable name="X(10,14,31)" index="6330" value="1"/>
  <variable name="X(10,27,123)" index="6548" value="1"/>
  <variable name="X(11,12,73)" index="6624" value="1"/>
  <variable name="X(11,14,74)" index="6751" value="1"/>
  <variable name="X(11,28,110)" index="6913" value="1"/>
  <variable name="X(12,7,73)" index="7002" value="1"/>
  <variable name="X(12,13,18)" index="7073" value="1"/>
  <variable name="X(12,14,93)" index="7274" value="1"/>
  <variable name="X(12,29,49)" index="7356" value="1"/>
  <variable name="X(13,12,93)" index="7526" value="1"/>
  <variable name="X(13,30,18)" index="7577" value="1"/>
  <variable name="X(14,2,31)" index="7716" value="1"/>
  <variable name="X(14,3,61)" index="7872" value="1"/>
  <variable name="X(14,8,74)" index="8011" value="1"/>
  <variable name="X(14,9,56)" index="8119" value="1"/>
  <variable name="X(14,10,93)" index="8282" value="1"/>
  <variable name="X(14,11,110)" index="8425" value="1"/>
  <variable name="X(14,12,18)" index="8459" value="1"/>
  <variable name="X(14,15,7)" index="8574" value="1"/>
  <variable name="X(14,31,29)" index="8722" value="1"/>
  <variable name="X(15,1,100)" index="8919" value="1"/>
  <variable name="X(15,4,7)" index="8952" value="1"/>
  <variable name="X(15,14,29)" index="9100" value="1"/>
  <variable name="X(15,32,5)" index="9202" value="1"/>
  <variable name="C(5,15)" index="9339" value="1"/>
  <variable name="C(7,14)" index="9344" value="1"/>
  <variable name="C(7,15)" index="9345" value="2"/>
  <variable name="C(7,4)" index="9346" value="3"/>
  <variable name="C(18,14)" index="9381" value="1"/>
  <variable name="C(18,12)" index="9382" value="2"/>
  <variable name="C(18,13)" index="9383" value="3"/>
  <variable name="C(29,15)" index="9425" value="1"/>
  <variable name="C(29,14)" index="9426" value="2"/>
  <variable name="C(31,10)" index="9430" value="1"/>
  <variable name="C(31,14)" index="9431" value="2"/>
  <variable name="C(31,2)" index="9432" value="3"/>
  <variable name="C(49,12)" index="9504" value="1"/>
  <variable name="C(56,14)" index="9528" value="1"/>
  <variable name="C(56,9)" index="9529" value="2"/>
  <variable name="C(61,14)" index="9543" value="1"/>
  <variable name="C(61,3)" index="9544" value="2"/>
  <variable name="C(73,12)" index="9583" value="1"/>
  <variable name="C(73,7)" index="9584" value="2"/>
  <variable name="C(74,14)" index="9586" value="1"/>
  <variable name="C(74,8)" index="9587" value="2"/>
  <variable name="C(93,12)" index="9644" value="1"/>
  <variable name="C(93,14)" index="9645" value="2"/>
  <variable name="C(93,10)" index="9646" value="3"/>
  <variable name="C(93,6)" index="9647" value="4"/>
  <variable name="C(100,1)" index="9670" value="1"/>
  <variable name="C(104,5)" index="9680" value="1"/>
  <variable name="C(110,11)" index="9694" value="1"/>
 </variables>
</CPLEXSolution>
